33D32945 STP File, STP Format Version 1.0

SECTION Comment
Name    "Series B" 
Creator "A. M. Costa" 
Format  "Z.H. Fu and J. K. Hao"
Remark  "Sparse graph with random weights"
#TotalEdgeCost 854
#BudgetFraction 5
END 

SECTION Graph 
Nodes 75 
Edges 150 
Root 1
Budget 170
HopLimit 3
E 1 9 4 
E 1 19 2 
E 1 67 7 
E 1 74 6 
E 2 18 8 
E 2 26 6 
E 2 32 3 
E 2 53 8 
E 2 63 3 
E 2 72 3 
E 2 73 1 
E 3 4 2 
E 3 12 4 
E 3 37 10 
E 3 42 6 
E 3 73 8 
E 4 22 10 
E 4 54 4 
E 5 31 8 
E 5 47 9 
E 5 51 4 
E 5 64 7 
E 6 22 4 
E 6 48 7 
E 6 65 6 
E 6 69 3 
E 7 67 6 
E 8 66 1 
E 8 72 4 
E 9 64 1 
E 9 69 1 
E 10 14 9 
E 10 19 10 
E 10 45 9 
E 10 61 7 
E 11 29 8 
E 11 71 3 
E 12 19 7 
E 12 35 5 
E 12 44 10 
E 13 16 10 
E 13 24 4 
E 13 58 4 
E 14 49 10 
E 14 51 6 
E 14 52 8 
E 14 68 1 
E 15 22 10 
E 15 57 9 
E 15 69 9 
E 16 28 3 
E 16 38 9 
E 17 39 8 
E 17 48 7 
E 18 54 5 
E 18 69 1 
E 19 32 8 
E 19 37 1 
E 19 44 2 
E 19 60 10 
E 20 45 10 
E 20 51 10 
E 20 66 4 
E 20 75 7 
E 21 58 6 
E 21 60 2 
E 22 23 7 
E 22 27 4 
E 22 28 1 
E 22 68 3 
E 23 32 1 
E 23 33 4 
E 23 50 4 
E 23 51 9 
E 23 55 4 
E 23 57 5 
E 23 67 5 
E 24 42 8 
E 24 51 2 
E 25 42 5 
E 25 74 4 
E 26 40 7 
E 27 29 4 
E 27 32 9 
E 27 39 3 
E 27 52 8 
E 27 55 10 
E 28 57 8 
E 28 70 3 
E 29 38 9 
E 29 57 7 
E 29 64 5 
E 29 74 2 
E 29 75 3 
E 30 61 8 
E 30 73 7 
E 31 34 6 
E 31 40 3 
E 31 61 2 
E 32 34 1 
E 32 56 8 
E 32 70 8 
E 34 43 5 
E 35 62 6 
E 35 63 1 
E 35 75 4 
E 36 39 7 
E 36 50 10 
E 36 58 2 
E 36 59 7 
E 36 66 4 
E 37 40 2 
E 37 43 9 
E 38 46 9 
E 38 50 10 
E 38 60 10 
E 38 72 10 
E 40 54 6 
E 41 57 7 
E 41 72 9 
E 42 56 4 
E 42 74 1 
E 43 50 10 
E 43 51 6 
E 43 55 10 
E 43 59 1 
E 45 48 4 
E 45 66 3 
E 47 55 6 
E 47 58 8 
E 47 60 4 
E 48 51 2 
E 48 55 10 
E 48 68 3 
E 48 71 1 
E 49 55 1 
E 49 65 3 
E 50 53 1 
E 51 71 8 
E 54 56 7 
E 54 57 3 
E 54 59 9 
E 54 65 3 
E 55 64 6 
E 58 71 4 
E 59 71 9 
E 61 69 7 
E 61 73 8 
E 62 63 10 
E 62 70 9 
END 

SECTION ProfitableVertices 
ProfitableVertices 38 
PV 1 91
PV 2 66
PV 3 5
PV 4 25
PV 5 43
PV 7 1
PV 8 57
PV 9 13
PV 10 42
PV 12 62
PV 15 80
PV 18 1
PV 19 95
PV 20 47
PV 27 76
PV 29 9
PV 32 79
PV 33 72
PV 35 38
PV 39 53
PV 40 37
PV 41 63
PV 42 86
PV 43 54
PV 44 7
PV 46 20
PV 49 70
PV 53 76
PV 57 88
PV 58 65
PV 61 46
PV 62 86
PV 63 95
PV 64 60
PV 67 12
PV 68 37
PV 72 4
PV 74 6
END 

EOF 
